
******************************************************************************
This program contains Ipopt, a library for large-scale nonlinear optimization.
 Ipopt is released as open source code under the Eclipse Public License (EPL).
         For more information visit http://projects.coin-or.org/Ipopt
******************************************************************************

This is Ipopt version 3.12.6, running with linear solver ma57.

Number of nonzeros in equality constraint Jacobian...:      474
Number of nonzeros in inequality constraint Jacobian.:        0
Number of nonzeros in Lagrangian Hessian.............:      402

Total number of variables............................:      264
                     variables with only lower bounds:        0
                variables with lower and upper bounds:      264
                     variables with only upper bounds:        0
Total number of equality constraints.................:       96
Total number of inequality constraints...............:        0
        inequality constraints with only lower bounds:        0
   inequality constraints with lower and upper bounds:        0
        inequality constraints with only upper bounds:        0

iter    objective    inf_pr   inf_du lg(mu)  ||d||  lg(rg) alpha_du alpha_pr  ls
   0 -7.8576127e-01 8.92e+00 9.50e-03  -1.0 0.00e+00    -  0.00e+00 0.00e+00   0
   1 -8.3048863e-01 7.10e+00 1.85e+00  -1.0 2.23e+01    -  6.81e-02 2.05e-01f  1
   2 -8.8847587e-01 2.35e+00 2.94e+00  -1.0 7.97e+00    -  9.18e-02 6.69e-01f  1
   3 -8.9108980e-01 1.31e-03 4.28e-01  -1.0 2.89e+00    -  8.55e-01 1.00e+00f  1
   4 -7.9239432e-01 1.13e-02 7.07e-02  -1.0 6.73e+00    -  7.92e-01 9.03e-01f  1
   5 -7.1092483e-01 2.52e-03 1.57e-02  -1.0 7.70e+00    -  9.64e-01 1.00e+00f  1
   6 -7.0036812e-01 3.63e-05 3.57e-04  -1.7 2.26e+00    -  1.00e+00 1.00e+00h  1
   7 -7.7389960e-01 1.98e-03 1.06e-01  -2.5 1.03e+01    -  7.87e-01 1.00e+00f  1
   8 -8.9938054e-01 6.25e-03 6.64e-05  -2.5 1.58e+01    -  1.00e+00 1.00e+00f  1
   9 -1.0511098e+00 2.39e-03 2.66e-02  -3.8 1.04e+01    -  6.55e-01 1.00e+00h  1
iter    objective    inf_pr   inf_du lg(mu)  ||d||  lg(rg) alpha_du alpha_pr  ls
  10 -1.0797515e+00 2.49e-03 6.42e-03  -3.8 1.74e+00    -  7.56e-01 1.00e+00h  1
  11 -1.0949549e+00 3.39e-02 1.69e-03  -3.8 1.28e+00    -  7.37e-01 7.20e-01h  1
  12 -1.0994017e+00 9.34e-04 3.02e-06  -3.8 8.63e-01    -  1.00e+00 1.00e+00h  1
  13 -1.1108891e+00 1.87e-03 1.98e-04  -5.7 9.74e-01    -  7.47e-01 7.04e-01h  1
  14 -1.1136602e+00 1.14e-03 7.07e-04  -5.7 6.58e-01    -  7.99e-01 5.45e-01h  1
  15 -1.1155652e+00 6.22e-04 1.12e-04  -5.7 5.40e-01    -  7.26e-01 8.75e-01h  1
  16 -1.1159197e+00 1.08e-04 5.90e-08  -5.7 2.00e-01    -  1.00e+00 1.00e+00f  1
  17 -1.1159342e+00 2.82e-06 3.52e-09  -5.7 3.45e-02    -  1.00e+00 1.00e+00h  1
  18 -1.1161298e+00 2.73e-05 5.98e-06  -8.6 8.12e-02    -  8.78e-01 9.58e-01h  1
  19 -1.1161400e+00 4.71e-06 5.30e-07  -8.6 1.99e-02    -  9.48e-01 9.27e-01h  1
iter    objective    inf_pr   inf_du lg(mu)  ||d||  lg(rg) alpha_du alpha_pr  ls
  20 -1.1161410e+00 3.59e-07 4.51e-10  -8.6 9.09e-03    -  1.00e+00 1.00e+00f  1
  21 -1.1161411e+00 3.11e-08 6.54e-11  -8.6 3.54e-03    -  1.00e+00 1.00e+00h  1
  22 -1.1161411e+00 4.39e-09 7.39e-12  -8.6 1.18e-03    -  1.00e+00 1.00e+00h  1

Number of Iterations....: 22

                                   (scaled)                 (unscaled)
Objective...............:  -1.1161410777492582e+00   -1.1161410777492582e+00
Dual infeasibility......:   7.3922052692668441e-12    7.3922052692668441e-12
Constraint violation....:   4.3934308135984423e-09    4.3934308135984423e-09
Complementarity.........:   4.0581327597418119e-09    4.0581327597418119e-09
Overall NLP error.......:   4.3934308135984423e-09    4.3934308135984423e-09


Number of objective function evaluations             = 23
Number of objective gradient evaluations             = 23
Number of equality constraint evaluations            = 23
Number of inequality constraint evaluations          = 0
Number of equality constraint Jacobian evaluations   = 23
Number of inequality constraint Jacobian evaluations = 0
Number of Lagrangian Hessian evaluations             = 22
Total CPU secs in IPOPT (w/o function evaluations)   =      0.013
Total CPU secs in NLP function evaluations           =      0.010

EXIT: Optimal Solution Found.

************************ CUTEst statistics ************************


 Package used            :  IPOPT
 Problem                 :  ZAMB2-11  
 # variables             =             270
 # constraints           =              96
 # objective functions   =        0.4700000E+02
 # objective gradients   =        0.2400000E+02
 # objective Hessians    =        0.2300000E+02
 # Hessian-vector prdct  =        0.0000000E+00
 # constraints functions =        0.4800000E+02
 # constraints gradients =        0.2500000E+02
 # constraints Hessians  =        0.2300000E+02
 Exit code               =               0
 Final f                 =  -0.1116141E+01
 Set up time             =            0.00 seconds
 Solve time              =            0.06 seconds


******************************************************************

System Time =       0.0130000003 s.
